peakDumbCharging = 11100; 
Machine = anon_enum(16); 
machineSpeed = [3700,3700,3700,3700,3700,3700,3700,3700,3700,3700,3700,3700,3700,3700,3700,3700]; 
machineLoad = [3700,3700,3700,3700,3700,3700,3700,3700,3700,3700,3700,3700,3700,3700,3700,3700]; 
Car = anon_enum(15); 
demandCar = [10240,11520,20840,2480,11400,27000,10000,6080,24320,7480,7360,18960,8640,3440,23800]; 
arrivalCar = [93,82,75,66,66,65,60,58,57,54,53,53,43,41,38]; 
departureCar = [1,87,82,69,70,75,65,63,65,57,58,70,48,47,46]; 
